networks/zoo_33_55/zoo_33_55-lower.sol
<?xml version = "1.0" encoding="UTF-8" standalone="yes"?>
<CPLEXSolution version="1.2">
 <header
   problemName="networks/zoo_33_55/zoo_33_55-lower.lp"
   solutionName="incumbent"
   solutionIndex="-1"
   objectiveValue="12"
   solutionTypeValue="3"
   solutionTypeString="primal"
   solutionStatusValue="101"
   solutionStatusString="integer optimal solution"
   solutionMethodString="mip"
   primalFeasible="1"
   dualFeasible="1"
   MIPNodes="0"
   MIPIterations="0"
   writeLevel="3"/>
 <quality
   epInt="1.0000000000000001e-05"
   epRHS="9.9999999999999995e-07"
   maxIntInfeas="0"
   maxPrimalInfeas="0"
   maxX="1"
   maxSlack="1"/>
 <variables>
  <variable name="Y(1,10)" index="9" value="1"/>
  <variable name="Y(2,16)" index="43" value="1"/>
  <variable name="Y(3,3)" index="58" value="1"/>
  <variable name="Y(4,4)" index="87" value="1"/>
  <variable name="Y(6,15)" index="154" value="1"/>
  <variable name="Y(11,1)" index="280" value="1"/>
  <variable name="Y(14,8)" index="371" value="1"/>
  <variable name="Y(16,11)" index="430" value="1"/>
  <variable name="Y(17,13)" index="460" value="1"/>
  <variable name="Y(24,6)" index="649" value="1"/>
  <variable name="Y(50,9)" index="1380" value="1"/>
  <variable name="Y(53,12)" index="1467" value="1"/>
  <variable name="X(1,4,1)" index="1540" value="1"/>
  <variable name="X(1,18,11)" index="1605" value="1"/>
  <variable name="X(2,10,3)" index="1652" value="1"/>
  <variable name="X(2,16,7)" index="1711" value="1"/>
  <variable name="X(3,6,24)" index="1783" value="1"/>
  <variable name="X(3,8,11)" index="1825" value="1"/>
  <variable name="X(3,20,3)" index="1872" value="1"/>
  <variable name="X(4,1,45)" index="1969" value="1"/>
  <variable name="X(4,10,1)" index="1980" value="1"/>
  <variable name="X(4,16,2)" index="2036" value="1"/>
  <variable name="X(4,21,4)" index="2093" value="1"/>
  <variable name="X(5,10,9)" index="2153" value="1"/>
  <variable name="X(5,16,10)" index="2209" value="1"/>
  <variable name="X(6,3,3)" index="2257" value="1"/>
  <variable name="X(6,10,13)" index="2322" value="1"/>
  <variable name="X(6,13,17)" index="2381" value="1"/>
  <variable name="X(6,16,19)" index="2438" value="1"/>
  <variable name="X(6,23,24)" index="2498" value="1"/>
  <variable name="X(7,6,20)" index="2549" value="1"/>
  <variable name="X(8,1,11)" index="2595" value="1"/>
  <variable name="X(8,3,22)" index="2661" value="1"/>
  <variable name="X(8,9,50)" index="2744" value="1"/>
  <variable name="X(8,13,25)" index="2774" value="1"/>
  <variable name="X(8,16,28)" index="2832" value="1"/>
  <variable name="X(8,25,14)" index="2873" value="1"/>
  <variable name="X(9,26,50)" index="2964" value="1"/>
  <variable name="X(10,4,4)" index="2973" value="1"/>
  <variable name="X(10,6,3)" index="3027" value="1"/>
  <variable name="X(10,11,16)" index="3095" value="1"/>
  <variable name="X(10,12,53)" index="3187" value="1"/>
  <variable name="X(10,15,6)" index="3195" value="1"/>
  <variable name="X(10,16,33)" index="3277" value="1"/>
  <variable name="X(10,27,1)" index="3300" value="1"/>
  <variable name="X(11,10,30)" index="3384" value="1"/>
  <variable name="X(11,13,29)" index="3438" value="1"/>
  <variable name="X(11,28,16)" index="3480" value="1"/>
  <variable name="X(12,10,34)" index="3553" value="1"/>
  <variable name="X(12,29,53)" index="3627" value="1"/>
  <variable name="X(13,3,29)" index="3658" value="1"/>
  <variable name="X(13,6,39)" index="3723" value="1"/>
  <variable name="X(13,8,36)" index="3775" value="1"/>
  <variable name="X(13,10,25)" index="3819" value="1"/>
  <variable name="X(13,15,27)" index="3876" value="1"/>
  <variable name="X(13,16,42)" index="3946" value="1"/>
  <variable name="X(13,30,17)" index="3976" value="1"/>
  <variable name="X(14,15,43)" index="4057" value="1"/>
  <variable name="X(15,10,43)" index="4112" value="1"/>
  <variable name="X(15,32,6)" index="4130" value="1"/>
  <variable name="X(16,4,45)" index="4224" value="1"/>
  <variable name="X(16,6,46)" index="4280" value="1"/>
  <variable name="X(16,8,49)" index="4338" value="1"/>
  <variable name="X(16,10,51)" index="4395" value="1"/>
  <variable name="X(16,13,54)" index="4453" value="1"/>
  <variable name="X(16,15,55)" index="4509" value="1"/>
  <variable name="X(16,33,2)" index="4511" value="1"/>
 </variables>
</CPLEXSolution>
